N = 10;
H = 5;
T = 2;

avail = array3d(1..N, 1..H, 1..T, [2, 2, 1, 1, 8, 4, 7, 0, 0, 10, 0, 10, 3, 9, 5, 3, 3, 10, 8, 2, 4, 8, 9, 3, 5, 2, 8, 9, 2, 3, 2, 8, 0, 4, 9, 2, 10, 0, 0, 10, 3, 8, 3, 4, 4, 4, 0, 9, 1, 0, 8, 2, 2, 9, 2, 4, 1, 2, 1, 6, 3, 9, 6, 1, 7, 7, 5, 5, 2, 4, 2, 8, 8, 4, 0, 7, 5, 8, 9, 1, 6, 2, 2, 7, 0, 0, 6, 2, 6, 7, 9, 5, 2, 6, 3, 6, 6, 9, 5, 9]);

r = array2d(1..H, 1..T, [5, 2, 2, 4, 5, 1, 0, 3, 0, 2]);
